outputs/Prob002_output/formal/TopModule/model/design_smt2.smt2
; SMT-LIBv2 description generated by Yosys 0.65+59 (git sha1 94ec78b6e, g++ 11.4.0-1ubuntu1~22.04.3 -fPIC -O3)
; yosys-smt2-module TopModule
(declare-sort |TopModule_s| 0)
(declare-fun |TopModule_is| (|TopModule_s|) Bool)
(declare-fun |TopModule#0| (|TopModule_s|) Bool) ; \a
; yosys-smt2-input a 1
; yosys-smt2-wire a 1
; yosys-smt2-witness {"offset": 0, "path": ["\\a"], "smtname": "a", "smtoffset": 0, "type": "input", "width": 1}
(define-fun |TopModule_n a| ((state |TopModule_s|)) Bool (|TopModule#0| state))
(declare-fun |TopModule#1| (|TopModule_s|) (_ BitVec 1)) ; \a_tem [8]
; yosys-smt2-wire a_tem 9
(define-fun |TopModule_n a_tem| ((state |TopModule_s|)) (_ BitVec 9) (concat (|TopModule#1| state) #b00000000))
(declare-fun |TopModule#2| (|TopModule_s|) Bool) ; \clk
; yosys-smt2-input clk 1
; yosys-smt2-wire clk 1
; yosys-smt2-witness {"offset": 0, "path": ["\\clk"], "smtname": "clk", "smtoffset": 0, "type": "input", "width": 1}
(define-fun |TopModule_n clk| ((state |TopModule_s|)) Bool (|TopModule#2| state))
; yosys-smt2-output match 1
; yosys-smt2-wire match 1
(define-fun |TopModule_n match| ((state |TopModule_s|)) Bool false)
(declare-fun |TopModule#3| (|TopModule_s|) Bool) ; \rst_n
; yosys-smt2-input rst_n 1
; yosys-smt2-wire rst_n 1
; yosys-smt2-witness {"offset": 0, "path": ["\\rst_n"], "smtname": "rst_n", "smtoffset": 0, "type": "input", "width": 1}
(define-fun |TopModule_n rst_n| ((state |TopModule_s|)) Bool (|TopModule#3| state))
(define-fun |TopModule_a| ((state |TopModule_s|)) Bool true)
(define-fun |TopModule_u| ((state |TopModule_s|)) Bool true)
(define-fun |TopModule_i| ((state |TopModule_s|)) Bool true)
(define-fun |TopModule_h| ((state |TopModule_s|)) Bool true)
(define-fun |TopModule_t| ((state |TopModule_s|) (next_state |TopModule_s|)) Bool true) ; end of module TopModule
; yosys-smt2-module TopModule_formal
(declare-sort |TopModule_formal_s| 0)
(declare-fun |TopModule_formal_is| (|TopModule_formal_s|) Bool)
; yosys-smt2-anyinit TopModule_formal#0 1 TopModule_formal.sv:14.5-25.8
; yosys-smt2-witness {"offset": 0, "path": ["\\_witness_", "\\anyinit_procdff_99"], "smtname": 0, "smtoffset": 0, "type": "init", "width": 1}
(declare-fun |TopModule_formal#0| (|TopModule_formal_s|) (_ BitVec 1)) ; \_witness_.anyinit_procdff_99
; yosys-smt2-register _witness_.anyinit_procdff_99 1
; yosys-smt2-wire _witness_.anyinit_procdff_99 1
(define-fun |TopModule_formal_n _witness_.anyinit_procdff_99| ((state |TopModule_formal_s|)) Bool (= ((_ extract 0 0) (|TopModule_formal#0| state)) #b1))
; yosys-smt2-anyinit TopModule_formal#1 1 TopModule_formal.sv:14.5-25.8
; yosys-smt2-witness {"offset": 0, "path": ["\\_witness_", "\\anyinit_procdff_103"], "smtname": 1, "smtoffset": 0, "type": "init", "width": 1}
(declare-fun |TopModule_formal#1| (|TopModule_formal_s|) (_ BitVec 1)) ; \_witness_.anyinit_procdff_103
; yosys-smt2-register _witness_.anyinit_procdff_103 1
; yosys-smt2-wire _witness_.anyinit_procdff_103 1
(define-fun |TopModule_formal_n _witness_.anyinit_procdff_103| ((state |TopModule_formal_s|)) Bool (= ((_ extract 0 0) (|TopModule_formal#1| state)) #b1))
; yosys-smt2-anyinit TopModule_formal#2 1 TopModule_formal.sv:14.5-25.8
; yosys-smt2-witness {"offset": 0, "path": ["\\_witness_", "\\anyinit_procdff_104"], "smtname": 2, "smtoffset": 0, "type": "init", "width": 1}
(declare-fun |TopModule_formal#2| (|TopModule_formal_s|) (_ BitVec 1)) ; \_witness_.anyinit_procdff_104
; yosys-smt2-register _witness_.anyinit_procdff_104 1
; yosys-smt2-wire _witness_.anyinit_procdff_104 1
(define-fun |TopModule_formal_n _witness_.anyinit_procdff_104| ((state |TopModule_formal_s|)) Bool (= ((_ extract 0 0) (|TopModule_formal#2| state)) #b1))
; yosys-smt2-anyinit TopModule_formal#3 1 TopModule_formal.sv:14.5-25.8
; yosys-smt2-witness {"offset": 0, "path": ["\\_witness_", "\\anyinit_procdff_106"], "smtname": 3, "smtoffset": 0, "type": "init", "width": 1}
(declare-fun |TopModule_formal#3| (|TopModule_formal_s|) (_ BitVec 1)) ; \_witness_.anyinit_procdff_106
; yosys-smt2-register _witness_.anyinit_procdff_106 1
; yosys-smt2-wire _witness_.anyinit_procdff_106 1
(define-fun |TopModule_formal_n _witness_.anyinit_procdff_106| ((state |TopModule_formal_s|)) Bool (= ((_ extract 0 0) (|TopModule_formal#3| state)) #b1))
; yosys-smt2-anyinit TopModule_formal#4 1 TopModule_formal.sv:14.5-25.8
; yosys-smt2-witness {"offset": 0, "path": ["\\_witness_", "\\anyinit_procdff_107"], "smtname": 4, "smtoffset": 0, "type": "init", "width": 1}
(declare-fun |TopModule_formal#4| (|TopModule_formal_s|) (_ BitVec 1)) ; \_witness_.anyinit_procdff_107
; yosys-smt2-register _witness_.anyinit_procdff_107 1
; yosys-smt2-wire _witness_.anyinit_procdff_107 1
(define-fun |TopModule_formal_n _witness_.anyinit_procdff_107| ((state |TopModule_formal_s|)) Bool (= ((_ extract 0 0) (|TopModule_formal#4| state)) #b1))
; yosys-smt2-anyinit TopModule_formal#5 1 TopModule_formal.sv:14.5-25.8
; yosys-smt2-witness {"offset": 0, "path": ["\\_witness_", "\\anyinit_procdff_108"], "smtname": 5, "smtoffset": 0, "type": "init", "width": 1}
(declare-fun |TopModule_formal#5| (|TopModule_formal_s|) (_ BitVec 1)) ; \_witness_.anyinit_procdff_108
; yosys-smt2-register _witness_.anyinit_procdff_108 1
; yosys-smt2-wire _witness_.anyinit_procdff_108 1
(define-fun |TopModule_formal_n _witness_.anyinit_procdff_108| ((state |TopModule_formal_s|)) Bool (= ((_ extract 0 0) (|TopModule_formal#5| state)) #b1))
; yosys-smt2-anyinit TopModule_formal#6 1 TopModule_formal.sv:14.5-25.8
; yosys-smt2-witness {"offset": 0, "path": ["\\_witness_", "\\anyinit_procdff_109"], "smtname": 6, "smtoffset": 0, "type": "init", "width": 1}
(declare-fun |TopModule_formal#6| (|TopModule_formal_s|) (_ BitVec 1)) ; \_witness_.anyinit_procdff_109
; yosys-smt2-register _witness_.anyinit_procdff_109 1
; yosys-smt2-wire _witness_.anyinit_procdff_109 1
(define-fun |TopModule_formal_n _witness_.anyinit_procdff_109| ((state |TopModule_formal_s|)) Bool (= ((_ extract 0 0) (|TopModule_formal#6| state)) #b1))
; yosys-smt2-anyinit TopModule_formal#7 1 TopModule_formal.sv:14.5-25.8
; yosys-smt2-witness {"offset": 0, "path": ["\\_witness_", "\\anyinit_procdff_115"], "smtname": 7, "smtoffset": 0, "type": "init", "width": 1}
(declare-fun |TopModule_formal#7| (|TopModule_formal_s|) (_ BitVec 1)) ; \_witness_.anyinit_procdff_115
; yosys-smt2-register _witness_.anyinit_procdff_115 1
; yosys-smt2-wire _witness_.anyinit_procdff_115 1
(define-fun |TopModule_formal_n _witness_.anyinit_procdff_115| ((state |TopModule_formal_s|)) Bool (= ((_ extract 0 0) (|TopModule_formal#7| state)) #b1))
; yosys-smt2-witness {"offset": 0, "path": ["$past$TopModule_formal.sv:17$2$8"], "smtname": 8, "smtoffset": 0, "type": "reg", "width": 1}
(declare-fun |TopModule_formal#8| (|TopModule_formal_s|) (_ BitVec 1)) ; $past$TopModule_formal.sv:17$2$8
; yosys-smt2-register $past$TopModule_formal.sv:17$2$8 1
(define-fun |TopModule_formal_n $past$TopModule_formal.sv:17$2$8| ((state |TopModule_formal_s|)) Bool (= ((_ extract 0 0) (|TopModule_formal#8| state)) #b1))
; yosys-smt2-anyinit TopModule_formal#9 1 TopModule_formal.sv:14.5-25.8
; yosys-smt2-witness {"offset": 0, "path": ["\\_witness_", "\\anyinit_procdff_83"], "smtname": 9, "smtoffset": 0, "type": "init", "width": 1}
(declare-fun |TopModule_formal#9| (|TopModule_formal_s|) (_ BitVec 1)) ; \_witness_.anyinit_procdff_83
; yosys-smt2-register _witness_.anyinit_procdff_83 1
; yosys-smt2-wire _witness_.anyinit_procdff_83 1
(define-fun |TopModule_formal_n _witness_.anyinit_procdff_83| ((state |TopModule_formal_s|)) Bool (= ((_ extract 0 0) (|TopModule_formal#9| state)) #b1))
; yosys-smt2-anyinit TopModule_formal#10 1 TopModule_formal.sv:14.5-25.8
; yosys-smt2-witness {"offset": 0, "path": ["\\_witness_", "\\anyinit_procdff_84"], "smtname": 10, "smtoffset": 0, "type": "init", "width": 1}
(declare-fun |TopModule_formal#10| (|TopModule_formal_s|) (_ BitVec 1)) ; \_witness_.anyinit_procdff_84
; yosys-smt2-register _witness_.anyinit_procdff_84 1
; yosys-smt2-wire _witness_.anyinit_procdff_84 1
(define-fun |TopModule_formal_n _witness_.anyinit_procdff_84| ((state |TopModule_formal_s|)) Bool (= ((_ extract 0 0) (|TopModule_formal#10| state)) #b1))
; yosys-smt2-anyinit TopModule_formal#11 1 TopModule_formal.sv:14.5-25.8
; yosys-smt2-witness {"offset": 0, "path": ["\\_witness_", "\\anyinit_procdff_85"], "smtname": 11, "smtoffset": 0, "type": "init", "width": 1}
(declare-fun |TopModule_formal#11| (|TopModule_formal_s|) (_ BitVec 1)) ; \_witness_.anyinit_procdff_85
; yosys-smt2-register _witness_.anyinit_procdff_85 1
; yosys-smt2-wire _witness_.anyinit_procdff_85 1
(define-fun |TopModule_formal_n _witness_.anyinit_procdff_85| ((state |TopModule_formal_s|)) Bool (= ((_ extract 0 0) (|TopModule_formal#11| state)) #b1))
; yosys-smt2-anyinit TopModule_formal#12 1 TopModule_formal.sv:14.5-25.8
; yosys-smt2-witness {"offset": 0, "path": ["\\_witness_", "\\anyinit_procdff_86"], "smtname": 12, "smtoffset": 0, "type": "init", "width": 1}
(declare-fun |TopModule_formal#12| (|TopModule_formal_s|) (_ BitVec 1)) ; \_witness_.anyinit_procdff_86
; yosys-smt2-register _witness_.anyinit_procdff_86 1
; yosys-smt2-wire _witness_.anyinit_procdff_86 1
(define-fun |TopModule_formal_n _witness_.anyinit_procdff_86| ((state |TopModule_formal_s|)) Bool (= ((_ extract 0 0) (|TopModule_formal#12| state)) #b1))
; yosys-smt2-anyinit TopModule_formal#13 1 TopModule_formal.sv:14.5-25.8
; yosys-smt2-witness {"offset": 0, "path": ["\\_witness_", "\\anyinit_procdff_87"], "smtname": 13, "smtoffset": 0, "type": "init", "width": 1}
(declare-fun |TopModule_formal#13| (|TopModule_formal_s|) (_ BitVec 1)) ; \_witness_.anyinit_procdff_87
; yosys-smt2-register _witness_.anyinit_procdff_87 1
; yosys-smt2-wire _witness_.anyinit_procdff_87 1
(define-fun |TopModule_formal_n _witness_.anyinit_procdff_87| ((state |TopModule_formal_s|)) Bool (= ((_ extract 0 0) (|TopModule_formal#13| state)) #b1))
; yosys-smt2-anyinit TopModule_formal#14 1 TopModule_formal.sv:14.5-25.8
; yosys-smt2-witness {"offset": 0, "path": ["\\_witness_", "\\anyinit_procdff_88"], "smtname": 14, "smtoffset": 0, "type": "init", "width": 1}
(declare-fun |TopModule_formal#14| (|TopModule_formal_s|) (_ BitVec 1)) ; \_witness_.anyinit_procdff_88
; yosys-smt2-register _witness_.anyinit_procdff_88 1
; yosys-smt2-wire _witness_.anyinit_procdff_88 1
(define-fun |TopModule_formal_n _witness_.anyinit_procdff_88| ((state |TopModule_formal_s|)) Bool (= ((_ extract 0 0) (|TopModule_formal#14| state)) #b1))
; yosys-smt2-anyinit TopModule_formal#15 1 TopModule_formal.sv:14.5-25.8
; yosys-smt2-witness {"offset": 0, "path": ["\\_witness_", "\\anyinit_procdff_89"], "smtname": 15, "smtoffset": 0, "type": "init", "width": 1}
(declare-fun |TopModule_formal#15| (|TopModule_formal_s|) (_ BitVec 1)) ; \_witness_.anyinit_procdff_89
; yosys-smt2-register _witness_.anyinit_procdff_89 1
; yosys-smt2-wire _witness_.anyinit_procdff_89 1
(define-fun |TopModule_formal_n _witness_.anyinit_procdff_89| ((state |TopModule_formal_s|)) Bool (= ((_ extract 0 0) (|TopModule_formal#15| state)) #b1))
; yosys-smt2-anyinit TopModule_formal#16 1 TopModule_formal.sv:14.5-25.8
; yosys-smt2-witness {"offset": 0, "path": ["\\_witness_", "\\anyinit_procdff_90"], "smtname": 16, "smtoffset": 0, "type": "init", "width": 1}
(declare-fun |TopModule_formal#16| (|TopModule_formal_s|) (_ BitVec 1)) ; \_witness_.anyinit_procdff_90
; yosys-smt2-register _witness_.anyinit_procdff_90 1
; yosys-smt2-wire _witness_.anyinit_procdff_90 1
(define-fun |TopModule_formal_n _witness_.anyinit_procdff_90| ((state |TopModule_formal_s|)) Bool (= ((_ extract 0 0) (|TopModule_formal#16| state)) #b1))
; yosys-smt2-anyseq TopModule_formal#17 1 TopModule_formal.sv:4.22-4.23 a
; yosys-smt2-witness {"offset": 0, "path": ["\\a"], "smtname": 17, "smtoffset": 0, "type": "seq", "width": 1}
(declare-fun |TopModule_formal#17| (|TopModule_formal_s|) (_ BitVec 1)) ; \a
; yosys-smt2-wire a 1
(define-fun |TopModule_formal_n a| ((state |TopModule_formal_s|)) Bool (= ((_ extract 0 0) (|TopModule_formal#17| state)) #b1))
; yosys-smt2-anyseq TopModule_formal#18 1 $auto$setundef.cc:350:execute$137
; yosys-smt2-witness {"offset": 0, "path": ["\\clk"], "smtname": 18, "smtoffset": 0, "type": "seq", "width": 1}
(declare-fun |TopModule_formal#18| (|TopModule_formal_s|) (_ BitVec 1)) ; \clk
; yosys-smt2-wire clk 1
(define-fun |TopModule_formal_n clk| ((state |TopModule_formal_s|)) Bool (= ((_ extract 0 0) (|TopModule_formal#18| state)) #b1))
; yosys-smt2-cell TopModule dut
; yosys-smt2-witness {"path": ["\\dut"], "smtname": "dut", "type": "cell"}
(declare-fun |TopModule_formal#19| (|TopModule_formal_s|) Bool) ; \match
(declare-fun |TopModule_formal_h dut| (|TopModule_formal_s|) |TopModule_s|)
; yosys-smt2-wire match 1
(define-fun |TopModule_formal_n match| ((state |TopModule_formal_s|)) Bool (|TopModule_formal#19| state))
; yosys-smt2-anyseq TopModule_formal#20 1 TopModule_formal.sv:3.22-3.27 rst_n
; yosys-smt2-witness {"offset": 0, "path": ["\\rst_n"], "smtname": 20, "smtoffset": 0, "type": "seq", "width": 1}
(declare-fun |TopModule_formal#20| (|TopModule_formal_s|) (_ BitVec 1)) ; \rst_n
; yosys-smt2-wire rst_n 1
(define-fun |TopModule_formal_n rst_n| ((state |TopModule_formal_s|)) Bool (= ((_ extract 0 0) (|TopModule_formal#20| state)) #b1))
(define-fun |TopModule_formal#21| ((state |TopModule_formal_s|)) Bool (not (or  (|TopModule_formal#19| state) false))) ; $logic_not$TopModule_formal.sv:18$48_Y
(define-fun |TopModule_formal#22| ((state |TopModule_formal_s|)) (_ BitVec 1) (ite (= ((_ extract 0 0) (|TopModule_formal#8| state)) #b1) #b0 #b1)) ; $procmux$70_Y
(define-fun |TopModule_formal#23| ((state |TopModule_formal_s|)) Bool (|TopModule_formal_is| state)) ; $initstate$1_wire
(define-fun |TopModule_formal#24| ((state |TopModule_formal_s|)) (_ BitVec 1) (ite (|TopModule_formal#23| state) #b0 (|TopModule_formal#22| state))) ; $assert$TopModule_formal.sv:18$47_EN
; yosys-smt2-assert 0 _witness_.check_assert_TopModule_formal_sv_18_47 TopModule_formal.sv:18.13-18.27
(define-fun |TopModule_formal_a 0| ((state |TopModule_formal_s|)) Bool (or (|TopModule_formal#21| state) (not (= ((_ extract 0 0) (|TopModule_formal#24| state)) #b1)))) ; _witness_.check_assert_TopModule_formal_sv_18_47
(define-fun |TopModule_formal#25| ((state |TopModule_formal_s|)) Bool (not (or  (= ((_ extract 0 0) (|TopModule_formal#17| state)) #b1) false))) ; $logic_not$TopModule_formal.sv:21$50_Y
(define-fun |TopModule_formal#26| ((state |TopModule_formal_s|)) Bool (and (or  (|TopModule_formal#25| state) false) (or  (= ((_ extract 0 0) (|TopModule_formal#5| state)) #b1) false))) ; $logic_and$TopModule_formal.sv:21$51_Y
(define-fun |TopModule_formal#27| ((state |TopModule_formal_s|)) Bool (and (or  (|TopModule_formal#26| state) false) (or  (= ((_ extract 0 0) (|TopModule_formal#6| state)) #b1) false))) ; $logic_and$TopModule_formal.sv:21$52_Y
(define-fun |TopModule_formal#28| ((state |TopModule_formal_s|)) Bool (and (or  (|TopModule_formal#27| state) false) (or  (= ((_ extract 0 0) (|TopModule_formal#3| state)) #b1) false))) ; $logic_and$TopModule_formal.sv:21$53_Y
(define-fun |TopModule_formal#29| ((state |TopModule_formal_s|)) Bool (and (or  (|TopModule_formal#28| state) false) (or  (= ((_ extract 0 0) (|TopModule_formal#4| state)) #b1) false))) ; $logic_and$TopModule_formal.sv:21$54_Y
(define-fun |TopModule_formal#30| ((state |TopModule_formal_s|)) Bool (not (or  (= ((_ extract 0 0) (|TopModule_formal#7| state)) #b1) false))) ; $logic_not$TopModule_formal.sv:22$55_Y
(define-fun |TopModule_formal#31| ((state |TopModule_formal_s|)) Bool (and (or  (|TopModule_formal#29| state) false) (or  (|TopModule_formal#30| state) false))) ; $logic_and$TopModule_formal.sv:21$56_Y
(define-fun |TopModule_formal#32| ((state |TopModule_formal_s|)) Bool (= (ite (|TopModule_formal#19| state) #b1 #b0) (ite (|TopModule_formal#31| state) #b1 #b0))) ; $eq$TopModule_formal.sv:20$57_Y
(define-fun |TopModule_formal#33| ((state |TopModule_formal_s|)) (_ BitVec 1) (ite (= ((_ extract 0 0) (|TopModule_formal#8| state)) #b1) #b1 #b0)) ; $procmux$64_Y
(define-fun |TopModule_formal#34| ((state |TopModule_formal_s|)) (_ BitVec 1) (ite (|TopModule_formal#23| state) #b0 (|TopModule_formal#33| state))) ; $assert$TopModule_formal.sv:20$49_EN
; yosys-smt2-assert 1 _witness_.check_assert_TopModule_formal_sv_20_49 TopModule_formal.sv:20.13-23.15
(define-fun |TopModule_formal_a 1| ((state |TopModule_formal_s|)) Bool (or (|TopModule_formal#32| state) (not (= ((_ extract 0 0) (|TopModule_formal#34| state)) #b1)))) ; _witness_.check_assert_TopModule_formal_sv_20_49
(define-fun |TopModule_formal#35| ((state |TopModule_formal_s|)) Bool (not (or  (= ((_ extract 0 0) (|TopModule_formal#20| state)) #b1) false))) ; $logic_not$TopModule_formal.sv:16$45_Y
(define-fun |TopModule_formal#36| ((state |TopModule_formal_s|)) (_ BitVec 1) (ite (|TopModule_formal#23| state) #b1 #b0)) ; $assume$TopModule_formal.sv:16$44_EN
; yosys-smt2-assume 0 _witness_.check_assume_TopModule_formal_sv_16_44 TopModule_formal.sv:16.13-16.27
(define-fun |TopModule_formal_u 0| ((state |TopModule_formal_s|)) Bool (or (|TopModule_formal#35| state) (not (= ((_ extract 0 0) (|TopModule_formal#36| state)) #b1)))) ; _witness_.check_assume_TopModule_formal_sv_16_44
(define-fun |TopModule_formal_a| ((state |TopModule_formal_s|)) Bool (and
  (|TopModule_formal_a 0| state)
  (|TopModule_formal_a 1| state)
  (|TopModule_a| (|TopModule_formal_h dut| state))
))
(define-fun |TopModule_formal_u| ((state |TopModule_formal_s|)) Bool (and
  (|TopModule_formal_u 0| state)
  (|TopModule_u| (|TopModule_formal_h dut| state))
))
(define-fun |TopModule_formal_i| ((state |TopModule_formal_s|)) Bool (and
  (= (= ((_ extract 0 0) (|TopModule_formal#8| state)) #b1) false) ; $past$TopModule_formal.sv:17$2$8
  (|TopModule_i| (|TopModule_formal_h dut| state))
))
(define-fun |TopModule_formal_h| ((state |TopModule_formal_s|)) Bool (and
  (= (|TopModule_formal_is| state) (|TopModule_is| (|TopModule_formal_h dut| state)))
  (= (= ((_ extract 0 0) (|TopModule_formal#17| state)) #b1) (|TopModule_n a| (|TopModule_formal_h dut| state))) ; TopModule.a
  (= (= ((_ extract 0 0) (|TopModule_formal#18| state)) #b1) (|TopModule_n clk| (|TopModule_formal_h dut| state))) ; TopModule.clk
  (= (|TopModule_formal#19| state) (|TopModule_n match| (|TopModule_formal_h dut| state))) ; TopModule.match
  (= (= ((_ extract 0 0) (|TopModule_formal#20| state)) #b1) (|TopModule_n rst_n| (|TopModule_formal_h dut| state))) ; TopModule.rst_n
  (|TopModule_h| (|TopModule_formal_h dut| state))
))
(define-fun |TopModule_formal_t| ((state |TopModule_formal_s|) (next_state |TopModule_formal_s|)) Bool (and
  (= (|TopModule_formal#15| state) (|TopModule_formal#16| next_state)) ; $procdff$90 \_witness_.anyinit_procdff_90
  (= (|TopModule_formal#14| state) (|TopModule_formal#15| next_state)) ; $procdff$89 \_witness_.anyinit_procdff_89
  (= (|TopModule_formal#13| state) (|TopModule_formal#14| next_state)) ; $procdff$88 \_witness_.anyinit_procdff_88
  (= (|TopModule_formal#12| state) (|TopModule_formal#13| next_state)) ; $procdff$87 \_witness_.anyinit_procdff_87
  (= (|TopModule_formal#11| state) (|TopModule_formal#12| next_state)) ; $procdff$86 \_witness_.anyinit_procdff_86
  (= (|TopModule_formal#10| state) (|TopModule_formal#11| next_state)) ; $procdff$85 \_witness_.anyinit_procdff_85
  (= (|TopModule_formal#9| state) (|TopModule_formal#10| next_state)) ; $procdff$84 \_witness_.anyinit_procdff_84
  (= (|TopModule_formal#20| state) (|TopModule_formal#9| next_state)) ; $procdff$83 \_witness_.anyinit_procdff_83
  (= (|TopModule_formal#16| state) (|TopModule_formal#8| next_state)) ; $procdff$91 $past$TopModule_formal.sv:17$2$8
  (= (|TopModule_formal#4| state) (|TopModule_formal#7| next_state)) ; $procdff$115 \_witness_.anyinit_procdff_115
  (= (|TopModule_formal#5| state) (|TopModule_formal#6| next_state)) ; $procdff$109 \_witness_.anyinit_procdff_109
  (= (|TopModule_formal#17| state) (|TopModule_formal#5| next_state)) ; $procdff$108 \_witness_.anyinit_procdff_108
  (= (|TopModule_formal#3| state) (|TopModule_formal#4| next_state)) ; $procdff$107 \_witness_.anyinit_procdff_107
  (= (|TopModule_formal#0| state) (|TopModule_formal#3| next_state)) ; $procdff$106 \_witness_.anyinit_procdff_106
  (= (|TopModule_formal#1| state) (|TopModule_formal#2| next_state)) ; $procdff$104 \_witness_.anyinit_procdff_104
  (= (|TopModule_formal#6| state) (|TopModule_formal#1| next_state)) ; $procdff$103 \_witness_.anyinit_procdff_103
  (= (|TopModule_formal#2| state) (|TopModule_formal#0| next_state)) ; $procdff$99 \_witness_.anyinit_procdff_99
  (|TopModule_t| (|TopModule_formal_h dut| state) (|TopModule_formal_h dut| next_state))
)) ; end of module TopModule_formal
; yosys-smt2-topmod TopModule_formal
; end of yosys output
